
Gurobi 11.0.0 (win64, C++) logging started Wed Jul 30 03:08:58 2025

Set parameter TokenServer to value "141.76.38.119"
### START HEURISTIC APPROACH APPROACH ###
ProblemVariant: 1
### START PREPROCESSING ###
## Start start solution procedure ##
Start solution with 17 Vehicles and total costs 630.822 in 36.3049 s.
### END PREPROCESSING ###
Route 0 0-5-35-0 : weight util 0.108100 | volume util 0.512489 | infeasible with packing heuristic | feasible with CP model
Route 1 0-6-71-18-33-0 : weight util 0.552200 | volume util 0.630778 | infeasible with packing heuristic | feasible with CP model
Route 2 0-10-3-8-4-7-9-0 : weight util 0.265400 | volume util 0.579289 | infeasible with packing heuristic | feasible with CP model
Route 3 0-12-16-17-13-11-36-0 : weight util 0.756767 | volume util 0.641444 | infeasible with packing heuristic | feasible with CP model
Route 4 0-14-19-2-15-1-0 : weight util 0.311933 | volume util 0.625867 | infeasible with packing heuristic | feasible with CP model
Route 5 0-20-29-0 : weight util 0.053267 | volume util 0.257511 | infeasible with packing heuristic | feasible with CP model
Route 6 0-23-24-26-0 : weight util 0.214100 | volume util 0.633600 | infeasible with packing heuristic | feasible with CP model
Route 7 0-30-21-22-27-28-0 : weight util 0.235467 | volume util 0.599689 | infeasible with packing heuristic | feasible with CP model
Route 8 0-32-34-31-0 : weight util 0.086700 | volume util 0.471000 | infeasible with packing heuristic | feasible with CP model
Route 9 0-37-69-66-59-0 : weight util 0.123033 | volume util 0.396178 | infeasible with packing heuristic | feasible with CP model
Route 10 0-46-53-43-42-44-47-41-0 : weight util 0.187067 | volume util 0.739733 | infeasible with packing heuristic | feasible with CP model
Route 11 0-48-45-52-0 : weight util 0.053067 | volume util 0.638689 | infeasible with packing heuristic | feasible with CP model
Route 12 0-49-50-70-51-25-0 : weight util 0.202133 | volume util 0.566756 | infeasible with packing heuristic | feasible with CP model
Route 13 0-56-57-0 : weight util 0.313300 | volume util 0.509556 | infeasible with packing heuristic | feasible with CP model
Route 14 0-60-58-63-61-55-0 : weight util 0.104167 | volume util 0.589267 | infeasible with packing heuristic | feasible with CP model
Route 15 0-62-68-38-40-0 : weight util 0.214167 | volume util 0.698089 | infeasible with packing heuristic | feasible with CP model
Route 16 0-64-65-67-39-54-0 : weight util 0.047100 | volume util 0.607600 | infeasible with packing heuristic | feasible with CP model
